NAME: tsp30-41
TYPE: TSP
DIMENSION: 30
EDGE_WEIGHT_TYPE: EUC_2D
NODE_COORD_SECTION
0 77 49
1 75 25
2 25 40
3 92 0
4 57 71
5 60 90
6 32 56
7 17 6
8 25 64
9 18 95
10 87 5
11 94 90
12 63 100
13 18 67
14 78 44
15 13 35
16 52 13
17 50 61
18 0 47
19 58 55
20 4 88
21 9 29
22 13 49
23 50 22
24 72 78
25 23 65
26 39 4
27 63 73
28 39 88
29 16 23
EOF